

******************************************************************************
This program contains Ipopt, a library for large-scale nonlinear optimization.
 Ipopt is released as open source code under the Eclipse Public License (EPL).
         For more information visit https://github.com/coin-or/Ipopt
******************************************************************************

This is Ipopt version 3.14.11, running with linear solver MUMPS 5.5.1.

Number of nonzeros in equality constraint Jacobian...:      101
Number of nonzeros in inequality constraint Jacobian.:      262
Number of nonzeros in Lagrangian Hessian.............:      199

Total number of variables............................:       33
                     variables with only lower bounds:       12
                variables with lower and upper bounds:        0
                     variables with only upper bounds:        0
Total number of equality constraints.................:       18
Total number of inequality constraints...............:       48
        inequality constraints with only lower bounds:        0
   inequality constraints with lower and upper bounds:        0
        inequality constraints with only upper bounds:       48

iter    objective    inf_pr   inf_du lg(mu)  ||d||  lg(rg) alpha_du alpha_pr  ls
   0  7.8010000e+01 5.29e+02 1.12e+00  -1.0 0.00e+00    -  0.00e+00 0.00e+00   0
   1  7.7243219e+01 5.19e+02 5.72e+01  -1.0 6.00e+00   2.0 1.00e+00 1.97e-02h  1
   2  7.7226194e+01 5.18e+02 2.39e+03  -1.0 1.21e+01   1.5 1.77e-02 4.44e-04h  1
   3  7.7048539e+01 5.16e+02 3.71e+03  -1.0 1.99e+01   1.9 7.00e-03 4.66e-03h  1
   4  7.7034407e+01 5.16e+02 4.54e+04  -1.0 1.27e+01   3.3 7.43e-03 3.72e-04h  1
   5  7.6845953e+01 5.13e+02 3.90e+04  -1.0 1.40e+01   2.8 2.24e-03 4.96e-03h  1
   6  7.6762923e+01 5.12e+02 4.98e+04  -1.0 1.50e+01   3.2 4.95e-03 2.19e-03h  1
   7  7.6637719e+01 5.10e+02 7.49e+04  -1.0 1.13e+01   3.7 5.96e-03 3.31e-03h  1
   8  7.6461687e+01 5.08e+02 8.66e+04  -1.0 1.07e+01   3.2 1.24e-02 4.66e-03h  1
   9  7.6221421e+01 5.05e+02 1.63e+05  -1.0 9.87e+00   3.6 2.08e-02 6.38e-03h  1
iter    objective    inf_pr   inf_du lg(mu)  ||d||  lg(rg) alpha_du alpha_pr  ls
  10  7.5971168e+01 5.01e+02 1.61e+05  -1.0 9.03e+00   3.1 2.61e-03 6.66e-03h  1
  11  7.5689962e+01 4.98e+02 1.50e+05  -1.0 8.02e+00   3.6 3.51e-03 7.52e-03h  1
  12  7.5578821e+01 4.96e+02 3.45e+05  -1.0 7.32e+00   4.0 2.96e-02 2.98e-03h  1
  13  7.5334180e+01 4.93e+02 3.66e+05  -1.0 7.15e+00   3.5 2.98e-02 6.57e-03h  1
  14  7.2630118e+01 4.58e+02 1.46e+05  -1.0 6.69e+00   3.9 3.08e-02 7.29e-02h  1
  15  7.1391375e+01 4.42e+02 1.03e+04  -1.0 5.58e+00   4.4 1.67e-04 3.47e-02f  1
  16  6.9575311e+01 4.19e+02 2.52e+05  -1.0 5.48e+00   4.8 2.90e-02 5.17e-02h  1
  17  6.8654010e+01 4.08e+02 6.23e+05  -1.0 5.34e+00   5.2 1.06e-02 2.69e-02h  1
  18  6.7448722e+01 3.94e+02 2.17e+05  -1.0 5.27e+00   4.7 1.48e-01 3.58e-02h  1
  19  5.6006577e+01 2.69e+02 3.88e+06  -1.0 5.18e+00   5.2 3.58e-03 3.46e-01f  1
iter    objective    inf_pr   inf_du lg(mu)  ||d||  lg(rg) alpha_du alpha_pr  ls
  20  4.9296030e+01 2.07e+02 3.57e+06  -1.0 4.28e+00   5.6 2.75e-02 2.45e-01h  1
  21  4.9156993e+01 2.06e+02 3.58e+06  -1.0 3.76e+00   5.1 1.31e-02 5.79e-03h  1
  22  4.9154441e+01 2.06e+02 3.64e+06  -1.0 3.75e+00   5.5 3.09e-02 1.06e-04h  1
  23  4.5792110e+01 1.78e+02 2.65e+06  -1.0 3.75e+00   5.0 1.81e-03 1.40e-01f  1
  24  4.5761363e+01 1.78e+02 4.39e+06  -1.0 3.48e+00   5.5 5.60e-01 1.38e-03h  1
  25  3.7730460e+01 1.20e+02 2.40e+06  -1.0 3.48e+00   5.0 9.26e-03 3.61e-01h  1
  26  3.7650925e+01 1.19e+02 2.38e+06  -1.0 2.85e+00   5.4 9.94e-05 4.36e-03h  1
  27  3.7650075e+01 1.19e+02 2.38e+06  -1.0 2.85e+00   4.9 4.90e-04 4.77e-05h  1
  28r 3.7650075e+01 1.19e+02 1.00e+03   2.1 0.00e+00   5.4 0.00e+00 3.82e-07R  2
  29r 3.7212303e+01 1.12e+02 1.00e+03   2.1 1.06e+05    -  1.96e-04 6.97e-05f  1
iter    objective    inf_pr   inf_du lg(mu)  ||d||  lg(rg) alpha_du alpha_pr  ls
  30r 2.6174511e+01 2.99e+01 1.00e+03   0.7 7.93e+04    -  2.16e-04 1.40e-03f  1
  31  2.6151577e+01 2.98e+01 9.25e+00  -1.0 1.39e+01    -  1.40e-02 1.80e-03f  1
  32  2.5927674e+01 2.93e+01 9.74e+00  -1.0 1.13e+01    -  1.56e-02 1.77e-02f  1
  33  2.5254810e+01 2.78e+01 7.59e+00  -1.0 8.34e+00    -  4.45e-02 5.17e-02f  1
  34  2.5192438e+01 2.77e+01 1.92e+01  -1.0 9.61e+00    -  2.02e-02 5.20e-03h  1
  35  2.4697321e+01 2.65e+01 1.82e+01  -1.0 1.01e+01    -  2.90e-02 4.33e-02f  1
  36  2.4356674e+01 2.57e+01 1.82e+01  -1.0 8.63e+00    -  5.55e-02 2.92e-02h  1
  37  2.1010988e+01 1.86e+01 4.22e+01  -1.0 7.92e+00    -  3.05e-02 2.98e-01f  1
  38  1.9077647e+01 1.50e+01 3.54e+01  -1.0 6.16e+00    -  1.43e-01 2.05e-01h  1
  39  1.9057438e+01 1.50e+01 1.28e+02  -1.0 4.86e+00    -  1.41e-01 2.47e-03h  1
iter    objective    inf_pr   inf_du lg(mu)  ||d||  lg(rg) alpha_du alpha_pr  ls
  40  1.8981084e+01 1.47e+01 9.87e+01  -1.0 7.29e+01    -  1.05e-02 1.51e-02h  1
  41  1.8295657e+01 1.35e+01 1.33e+02  -1.0 9.89e+00    -  3.62e-02 8.39e-02h  1
  42  1.7664340e+01 1.24e+01 1.19e+02  -1.0 5.08e+00    -  9.23e-02 8.27e-02f  1
  43  1.5708782e+01 9.44e+00 1.14e+02  -1.0 6.44e+00    -  1.10e-01 2.55e-01h  1
  44  1.5455352e+01 9.03e+00 9.77e+01  -1.0 2.54e+00    -  1.35e-01 4.35e-02h  1
  45  1.5448885e+01 9.02e+00 1.84e+02  -1.0 3.99e+01    -  1.24e-02 6.80e-04h  1
  46  1.5165546e+01 8.73e+00 9.62e+01  -1.0 4.77e+01    -  2.10e-03 3.28e-02f  1
  47  1.5165295e+01 8.73e+00 6.03e+04  -1.0 1.37e+00   4.9 1.19e-02 4.15e-05h  1
  48  1.5161494e+01 8.72e+00 1.63e+05  -1.0 8.99e+00   4.4 4.73e-03 6.15e-04h  1
  49  1.5088461e+01 8.62e+00 3.81e+05  -1.0 9.47e+00   3.9 3.62e-02 1.23e-02h  1
iter    objective    inf_pr   inf_du lg(mu)  ||d||  lg(rg) alpha_du alpha_pr  ls
  50  1.5029422e+01 8.53e+00 4.68e+05  -1.0 9.61e+00   3.5 5.07e-02 9.97e-03h  1
  51  1.5027450e+01 8.53e+00 4.67e+05  -1.0 1.25e+01   3.0 4.96e-03 3.44e-04h  1
  52  1.5003934e+01 8.49e+00 5.91e+05  -1.0 1.01e+01   3.4 6.88e-02 4.02e-03h  1
  53  1.4980579e+01 8.46e+00 5.89e+05  -1.0 1.96e+01   2.9 3.58e-03 4.23e-03h  1
  54  1.4958909e+01 8.42e+00 6.24e+05  -1.0 1.01e+01   3.4 3.05e-02 3.90e-03h  1
  55  1.4923778e+01 8.35e+00 5.97e+05  -1.0 2.14e+01   2.9 2.33e-02 8.19e-03h  1
  56  1.4921779e+01 8.35e+00 6.79e+05  -1.0 9.30e+00   3.3 1.15e-01 3.72e-04h  1
  57  1.4905948e+01 8.32e+00 6.73e+05  -1.0 1.45e+01   2.8 9.73e-03 3.22e-03h  1
  58  1.4905003e+01 8.32e+00 6.24e+05  -1.0 1.22e+01   2.4 4.07e-02 1.94e-04h  1
  59  1.4898916e+01 8.31e+00 6.22e+05  -1.0 9.10e+00   2.8 3.64e-03 1.11e-03h  1
iter    objective    inf_pr   inf_du lg(mu)  ||d||  lg(rg) alpha_du alpha_pr  ls
  60  1.4842133e+01 8.22e+00 6.24e+05  -1.0 1.16e+01   2.3 2.97e-03 1.07e-02h  1
  61  1.4841849e+01 8.22e+00 6.18e+05  -1.0 8.75e+00   2.7 1.41e-02 4.84e-05h  1
  62  1.4702744e+01 8.02e+00 6.13e+05  -1.0 1.09e+01   2.3 1.42e-02 2.45e-02f  1
  63  1.4702029e+01 8.02e+00 6.07e+05  -1.0 9.56e+00   2.7 1.35e-02 1.29e-04h  1
  64  1.4683506e+01 8.00e+00 6.08e+05  -1.0 9.77e+00   2.2 2.20e-04 3.26e-03f  1
  65  1.4090291e+01 7.13e+00 6.03e+05  -1.0 9.70e+00   2.6 3.36e-03 1.11e-01f  1
  66  1.4077967e+01 7.11e+00 6.04e+05  -1.0 2.28e+01   2.2 6.49e-05 1.74e-03h  1
  67  1.4077872e+01 7.11e+00 5.73e+05  -1.0 7.99e+00   2.6 3.61e-02 1.66e-05h  1
  68  1.4047186e+01 7.09e+00 5.75e+05  -1.0 6.75e+01   2.1 7.55e-05 2.76e-03f  1
  69  1.4045312e+01 7.09e+00 5.74e+05  -1.0 8.88e+01   2.5 4.19e-06 1.63e-04h  1
iter    objective    inf_pr   inf_du lg(mu)  ||d||  lg(rg) alpha_du alpha_pr  ls
  70  1.4044879e+01 7.09e+00 5.84e+05  -1.0 7.43e+01   3.0 4.02e-03 4.90e-05h  1
  71  1.3972486e+01 7.08e+00 5.67e+05  -1.0 3.68e+02   2.5 2.46e-05 1.69e-03f  1
  72  1.3894487e+01 7.01e+00 5.81e+05  -1.0 7.31e+01   2.9 1.65e-02 9.18e-03f  1
  73  1.3691635e+01 6.78e+00 4.24e+05  -1.0 4.15e+01   3.3 3.71e-04 3.17e-02f  1
  74  1.3691578e+01 6.78e+00 5.97e+05  -1.0 1.76e+01   3.8 4.15e-02 1.24e-05h  1
  75  1.3623955e+01 6.69e+00 6.11e+05  -1.0 1.76e+01   3.3 3.81e-02 1.36e-02h  1
  76  1.3604545e+01 6.66e+00 6.14e+05  -1.0 1.67e+02   2.8 8.04e-05 3.91e-03h  1
  77  1.3602644e+01 6.65e+00 6.10e+05  -1.0 1.26e+01   3.2 9.58e-03 4.23e-04h  1
  78  1.3602510e+01 6.65e+00 6.02e+05  -1.0 3.80e+01   2.7 5.92e-03 3.25e-05h  1
  79  1.2716561e+01 5.41e+00 5.24e+05  -1.0 1.18e+01   3.2 1.24e-04 1.96e-01f  1
iter    objective    inf_pr   inf_du lg(mu)  ||d||  lg(rg) alpha_du alpha_pr  ls
  80  1.2710070e+01 5.40e+00 6.21e+05  -1.0 7.33e+00   3.6 2.50e-01 1.71e-03h  1
  81  1.2708282e+01 5.40e+00 4.68e+05  -1.0 7.20e+00   3.1 1.56e-01 4.68e-04h  1
  82  1.2708144e+01 5.40e+00 4.69e+05  -1.0 2.05e+02   2.6 2.44e-06 1.61e-04h  1
  83  1.2660655e+01 5.32e+00 4.61e+05  -1.0 3.75e+01   3.1 5.96e-05 1.14e-02f  1
  84  1.2659899e+01 5.32e+00 4.69e+05  -1.0 2.79e+01   3.5 1.14e-02 2.04e-04h  1
  85  1.2659618e+01 5.32e+00 4.69e+05  -1.0 3.73e+01   3.0 6.69e-04 6.77e-05h  1
  86  1.2635237e+01 5.29e+00 4.78e+05  -1.0 8.77e+01   2.5 3.85e-06 4.81e-03f  1
  87  1.2634490e+01 5.29e+00 4.81e+05  -1.0 7.36e+00   3.9 3.14e-03 1.94e-04h  1
  88r 1.2634490e+01 5.29e+00 1.00e+03   0.7 0.00e+00   3.4 0.00e+00 4.75e-07R  3
  89r 1.2087616e+01 4.18e+00 1.00e+03   0.7 3.66e+03    -  8.93e-04 4.36e-04f  1
iter    objective    inf_pr   inf_du lg(mu)  ||d||  lg(rg) alpha_du alpha_pr  ls
  90  1.2086982e+01 4.17e+00 3.96e+01  -1.0 1.62e+01    -  5.93e-03 1.82e-04f  1
  91  1.2078558e+01 4.16e+00 1.60e+01  -1.0 2.39e+01    -  5.44e-05 2.38e-03f  1
  92  1.2078404e+01 4.16e+00 5.27e+01  -1.0 3.25e+01    -  5.79e-04 4.14e-05h  1
  93  1.2073887e+01 4.16e+00 2.69e+01  -1.0 1.55e+02    -  4.85e-05 9.26e-04f  1
  94  1.2059849e+01 4.14e+00 6.77e+01  -1.0 1.34e+02    -  2.49e-03 3.53e-03f  1
  95  1.2060083e+01 4.14e+00 2.24e+02  -1.0 9.32e+01    -  1.98e-03 3.60e-05h  1
  96  1.2070541e+01 4.13e+00 2.28e+02  -1.0 1.72e+02    -  2.06e-05 1.19e-03f  1
  97  1.2073086e+01 4.12e+00 3.23e+02  -1.0 8.99e+01    -  4.68e-03 2.40e-03f  1
  98  1.2059007e+01 4.10e+00 2.92e+02  -1.0 8.77e+01    -  3.55e-03 5.83e-03f  1
  99  1.2047747e+01 4.09e+00 2.86e+02  -1.0 8.72e+01    -  1.02e-04 1.34e-03f  1
iter    objective    inf_pr   inf_du lg(mu)  ||d||  lg(rg) alpha_du alpha_pr  ls
 100  1.2034321e+01 4.09e+00 2.86e+02  -1.0 2.24e+03    -  5.59e-05 2.93e-05h  1
 101  1.2036637e+01 4.08e+00 2.85e+02  -1.0 1.93e+02    -  3.13e-03 2.23e-03f  1
 102  1.2036259e+01 4.08e+00 2.85e+02  -1.0 9.10e+00   2.9 1.98e-04 8.06e-05h  1
 103  1.2035346e+01 4.08e+00 2.85e+02  -1.0 2.54e+01   2.4 1.46e-04 2.19e-04h  1
 104  1.2035829e+01 4.08e+00 2.85e+02  -1.0 3.02e+02    -  8.03e-04 7.84e-05h  1
 105  1.2034171e+01 4.08e+00 3.04e+02  -1.0 3.67e+01   2.0 4.68e-05 4.04e-04h  1
 106  1.2032949e+01 4.08e+00 3.57e+03  -1.0 5.69e+01   1.5 1.09e-02 3.19e-04h  1
 107  1.2025316e+01 4.07e+00 3.73e+03  -1.0 6.13e+01   1.0 4.05e-03 2.63e-03h  1
 108  1.2024982e+01 4.06e+00 3.72e+03  -1.0 7.80e+01    -  1.00e-03 5.58e-04h  1
 109  1.2024804e+01 4.06e+00 3.73e+03  -1.0 5.77e+01   0.5 4.32e-04 6.64e-05h  1
iter    objective    inf_pr   inf_du lg(mu)  ||d||  lg(rg) alpha_du alpha_pr  ls
 110  1.2014027e+01 4.03e+00 3.68e+03  -1.0 1.83e+02    -  6.10e-03 4.96e-03f  1
 111  1.2014011e+01 4.02e+00 3.68e+03  -1.0 9.08e+01    -  1.36e-03 5.12e-05h  1
 112  1.2061776e+01 4.02e+00 9.36e+03  -1.0 1.98e+03    -  1.65e-05 5.86e-04f  1
 113  1.2091984e+01 4.02e+00 1.07e+04  -1.0 2.87e+03    -  8.00e-05 2.26e-04f  1
 114  1.2085476e+01 4.02e+00 1.07e+04  -1.0 3.28e+02   0.1 1.32e-05 3.01e-04f  1
 115  1.2084557e+01 4.02e+00 1.12e+04  -1.0 7.27e+01  -0.4 1.05e-02 1.28e-04h  1
 116  1.2094139e+01 4.02e+00 1.13e+04  -1.0 9.01e+02    -  1.45e-04 2.02e-04h  1
 117r 1.2094139e+01 4.02e+00 1.00e+03   0.6 0.00e+00    -  0.00e+00 2.82e-07R  5
 118r 1.2018282e+01 4.02e+00 1.02e+03   0.6 3.16e+03    -  9.32e-04 1.06e-04f  1
 119r 1.2014695e+01 4.02e+00 1.05e+03   0.6 2.61e+03    -  2.03e-03 8.07e-05f  1
iter    objective    inf_pr   inf_du lg(mu)  ||d||  lg(rg) alpha_du alpha_pr  ls
 120r 1.2012346e+01 4.02e+00 1.07e+03   0.6 2.86e+03    -  1.79e-03 7.98e-04f  1
 121r 1.2012463e+01 3.96e+00 1.04e+03   0.6 3.34e+03    -  1.78e-03 3.45e-03f  1
 122r 1.2011539e+01 3.95e+00 9.98e+02   0.6 1.97e+02   0.0 1.22e-03 4.03e-03f  1
 123r 1.2011387e+01 3.95e+00 9.92e+02   0.6 1.06e+03  -0.5 2.35e-03 3.09e-03f  1
 124r 1.2012720e+01 4.00e+00 9.90e+02   0.6 1.85e+02  -0.1 2.77e-03 4.83e-03f  1
 125r 1.2013328e+01 4.00e+00 9.84e+02   0.6 3.73e+02  -0.5 5.38e-03 3.43e-03f  1
 126r 1.2015163e+01 4.00e+00 1.01e+03   0.6 1.41e+02  -0.1 1.49e-02 1.06e-02f  1
 127r 1.2017913e+01 3.99e+00 9.63e+02   0.6 5.50e+01   0.3 1.16e-02 2.52e-02f  1
 128r 1.2021724e+01 3.99e+00 1.78e+03   0.6 2.09e+01   0.7 1.27e-01 3.46e-02f  1
 129r 1.2018460e+01 4.00e+00 1.65e+03   0.6 9.03e+01   0.3 2.47e-02 3.19e-02f  1
iter    objective    inf_pr   inf_du lg(mu)  ||d||  lg(rg) alpha_du alpha_pr  ls
 130r 1.2019252e+01 4.00e+00 2.70e+03   0.6 3.12e+01   0.7 1.59e-01 4.98e-02f  1
 131r 1.2020194e+01 4.00e+00 2.73e+03   0.6 1.11e+01   1.1 7.06e-02 4.86e-02f  1
 132r 1.2008850e+01 4.00e+00 1.93e+03   0.6 9.65e+01   0.6 1.54e-02 6.31e-02f  1
 133r 1.2006561e+01 4.00e+00 1.70e+03   0.6 3.73e+01   1.1 5.68e-02 8.84e-02f  1
 134r 1.2007303e+01 4.00e+00 2.21e+03   0.6 1.25e+01   1.5 2.16e-01 4.71e-02f  1
 135r 1.2007686e+01 4.00e+00 2.88e+03   0.6 3.73e+00   1.0 2.12e-01 1.94e-02f  1
 136r 1.2007349e+01 4.00e+00 2.67e+03   0.6 2.06e+02   0.5 8.68e-03 2.14e-02f  1
 137r 1.2013932e+01 4.00e+00 5.24e+03   0.6 4.52e+00   1.0 3.26e-02 1.92e-01f  1
 138r 1.2019192e+01 4.00e+00 4.35e+03   0.6 2.24e+01   0.5 7.81e-02 1.21e-01f  1
 139r 1.2018581e+01 4.00e+00 5.18e+03   0.6 1.24e+01   0.9 5.22e-01 2.61e-01f  1
iter    objective    inf_pr   inf_du lg(mu)  ||d||  lg(rg) alpha_du alpha_pr  ls
 140r 1.2046573e+01 4.00e+00 1.44e+03   0.6 4.21e+00   1.3 1.56e-01 4.80e-01f  1
 141r 1.2044511e+01 4.00e+00 1.88e+03   0.6 9.85e+01   0.9 2.71e-02 2.00e-02f  1
 142r 1.2129287e+01 4.00e+00 5.37e+03   0.6 1.26e+00   2.2 1.47e-01 9.40e-01f  1
 143r 1.2129202e+01 4.00e+00 5.11e+03   0.6 7.25e+00   1.7 1.35e-01 2.10e-02f  1
 144r 1.2136279e+01 4.00e+00 4.55e+03   0.6 4.33e+00   1.2 4.73e-01 3.74e-02f  1
 145r 1.2191752e+01 4.00e+00 4.29e+03   0.6 2.26e+01   0.8 6.55e-02 5.43e-02f  1
 146r 1.2198462e+01 4.00e+00 4.63e+03   0.6 6.33e+00   0.3 2.21e-01 3.53e-02f  1
 147r 1.2220304e+01 4.01e+00 2.26e+03   0.6 3.92e+00   0.7 6.95e-01 5.80e-01f  1
 148r 1.2259885e+01 4.01e+00 2.69e+03   0.6 2.22e+00   1.1 3.43e-01 1.00e+00f  1
 149r 1.2251278e+01 4.01e+00 2.59e+03   0.6 3.66e+01   0.7 6.70e-02 4.25e-02f  1
iter    objective    inf_pr   inf_du lg(mu)  ||d||  lg(rg) alpha_du alpha_pr  ls
 150r 1.2286363e+01 4.01e+00 8.46e+01   0.6 4.39e+00   1.1 1.00e+00 1.00e+00f  1
 151r 1.2221563e+01 4.01e+00 1.27e+02  -0.1 2.26e+02   0.6 1.67e-02 1.19e-02f  1
 152r 1.2195815e+01 4.00e+00 1.36e+02  -0.1 9.79e+00   1.0 6.55e-01 5.72e-01f  1
 153r 1.2195441e+01 4.00e+00 1.13e+03  -0.1 3.76e+00   1.5 1.00e+00 4.21e-01f  1
 154r 1.2195200e+01 4.00e+00 3.44e+03  -0.1 1.70e+00   1.0 5.18e-01 8.73e-03f  1
 155r 1.2175544e+01 4.00e+00 3.62e+03  -0.1 1.28e+00   0.5 3.96e-01 2.24e-01f  1
 156r 1.2115701e+01 4.00e+00 1.13e+03  -0.1 1.12e+00   0.0 5.39e-01 1.00e+00f  1
 157r 1.2294810e+01 4.00e+00 4.79e+02  -0.1 4.39e+00    -  4.89e-01 1.00e+00f  1
 158r 1.2682225e+01 4.00e+00 2.44e+02  -0.1 1.11e+01    -  5.11e-01 1.00e+00f  1
 159r 1.3241965e+01 4.00e+00 1.05e+02  -0.1 6.26e+00    -  5.82e-01 1.00e+00f  1
iter    objective    inf_pr   inf_du lg(mu)  ||d||  lg(rg) alpha_du alpha_pr  ls
 160r 1.5760497e+01 4.00e+00 1.58e+02  -0.1 2.23e+01    -  4.65e-01 1.00e+00f  1
 161r 1.8136263e+01 4.00e+00 4.65e+01  -0.1 4.46e+01    -  5.14e-01 1.00e+00f  1
 162r 1.9827293e+01 4.00e+00 1.40e+02  -0.1 3.32e+01    -  7.13e-01 1.00e+00f  1
 163r 2.0228112e+01 4.00e+00 1.47e+02  -0.1 5.77e+01    -  4.35e-01 4.82e-01F  1
 164r 2.0035859e+01 4.00e+00 1.19e+03  -0.1 4.81e+01    -  1.30e-01 4.61e-01H  1
 165r 2.0995049e+01 4.00e+00 1.03e+03  -0.1 2.00e+01    -  4.21e-01 1.00e+00f  1
 166r 2.1104101e+01 3.99e+00 6.75e+02  -0.1 1.19e+02    -  2.18e-02 4.00e-02f  1
 167r 2.1096927e+01 3.98e+00 1.13e+03  -0.1 2.74e+02   0.5 3.18e-03 2.34e-03f  1
 168r 2.1123313e+01 3.95e+00 1.59e+02  -0.1 1.72e+00   0.9 5.03e-01 3.39e-01f  1
 169r 2.1212128e+01 3.92e+00 9.68e+02  -0.1 6.19e-01   1.3 6.62e-01 8.00e-01f  1
iter    objective    inf_pr   inf_du lg(mu)  ||d||  lg(rg) alpha_du alpha_pr  ls
 170r 2.1211384e+01 3.91e+00 5.37e+03  -0.1 2.33e+00   0.8 7.36e-01 3.24e-02f  1
 171r 2.1214646e+01 3.86e+00 8.19e+01  -0.1 6.25e-01   1.3 1.00e+00 1.00e+00f  1
 172r 2.1040509e+01 3.29e+00 2.48e+02  -0.1 4.29e+00   0.8 6.89e-01 1.00e+00f  1
 173  2.1110703e+01 9.09e-01 6.26e+01  -1.0 1.98e+01    -  2.56e-01 4.94e-01f  1
 174  2.1621030e+01 1.13e+00 4.79e+01  -1.0 4.78e+00    -  3.29e-01 1.00e+00h  1
 175  2.1307907e+01 1.20e-01 7.27e+00  -1.0 3.61e+00    -  8.73e-01 1.00e+00h  1
 176  1.9854287e+01 1.54e+00 2.46e+00  -1.0 1.69e+01    -  6.97e-01 1.00e+00f  1
 177  1.7965515e+01 5.17e+00 1.27e+00  -1.0 4.89e+01    -  3.83e-01 5.70e-01h  1
 178  1.7815787e+01 2.68e-01 8.31e-01  -1.0 1.59e+01    -  7.19e-01 1.00e+00h  1
 179  1.7069804e+01 1.27e+00 4.39e-01  -1.0 2.30e+01    -  1.00e+00 6.61e-01h  1
iter    objective    inf_pr   inf_du lg(mu)  ||d||  lg(rg) alpha_du alpha_pr  ls
 180  1.6835179e+01 2.21e+00 4.68e-02  -1.0 1.85e+01    -  1.00e+00 1.00e+00h  1
 181  1.6865656e+01 2.44e-01 3.57e-03  -1.0 4.57e+00    -  1.00e+00 1.00e+00h  1
 182  1.6875154e+01 1.62e-03 7.75e-05  -1.0 4.96e-01    -  1.00e+00 1.00e+00h  1
 183  1.4200961e+01 1.88e-01 3.30e-01  -2.5 1.64e+02    -  1.00e+00 3.27e-01f  1
 184  1.2761747e+01 1.50e-01 6.10e-01  -2.5 3.67e+01    -  1.00e+00 5.72e-01h  1
 185  1.2226601e+01 6.15e-02 3.53e-01  -2.5 6.72e+00    -  1.00e+00 7.04e-01h  1
 186  1.2047605e+01 8.03e-03 7.29e-03  -2.5 1.40e+00    -  1.00e+00 1.00e+00h  1
 187  1.2001777e+01 2.29e-04 6.72e-04  -3.8 5.56e-01    -  1.00e+00 9.90e-01h  1
 188  1.2002557e+01 1.92e-07 7.61e-05  -3.8 1.36e-02    -  1.00e+00 1.00e+00h  1
 189  1.2000109e+01 5.18e-07 1.13e-03  -5.7 3.04e-02    -  1.00e+00 9.81e-01h  1
iter    objective    inf_pr   inf_du lg(mu)  ||d||  lg(rg) alpha_du alpha_pr  ls
 190  1.2000106e+01 4.76e-10 3.59e-01  -5.7 1.18e-04    -  8.82e-01 1.00e+00f  1
 191  1.2000106e+01 6.26e-10 6.59e-01  -5.7 3.66e-02    -  1.00e+00 6.82e-03h  3
 192  1.2000097e+01 8.46e-10 1.25e-06  -5.7 3.12e-04    -  1.00e+00 1.00e+00h  1
 193  1.2000079e+01 2.69e-10 2.74e-01  -8.6 2.76e-04    -  1.00e+00 6.99e-01h  1
 194  1.2000075e+01 3.23e-11 1.31e-01  -8.6 4.80e-05    -  1.00e+00 8.83e-01f  1
 195  1.2000075e+01 8.50e-13 1.04e-08  -8.6 1.24e-05    -  1.00e+00 1.00e+00f  1
 196  1.2000075e+01 6.13e-14 9.90e-11  -9.0 2.27e-06    -  1.00e+00 1.00e+00h  1

Number of Iterations....: 196

                                   (scaled)                 (unscaled)
Objective...............:   1.2000074880088258e+01    1.2000074880088258e+01
Dual infeasibility......:   9.9021674540566984e-11    9.9021674540566984e-11
Constraint violation....:   6.1284310959308641e-14    6.1284310959308641e-14
Variable bound violation:   9.8701917750076973e-09    9.8701917750076973e-09
Complementarity.........:   9.4102670430420287e-10    9.4102670430420287e-10
Overall NLP error.......:   9.4102670430420287e-10    9.4102670430420287e-10


Number of objective function evaluations             = 213
Number of objective gradient evaluations             = 142
Number of equality constraint evaluations            = 213
Number of inequality constraint evaluations          = 213
Number of equality constraint Jacobian evaluations   = 200
Number of inequality constraint Jacobian evaluations = 200
Number of Lagrangian Hessian evaluations             = 196
Total seconds in IPOPT                               = 0.211

EXIT: Optimal Solution Found.
 
Ipopt 3.14.11: Optimal Solution Found
